*SENSE:Minimize
NAME          infeasible
ROWS
 N  OBJ
 L  c0
 L  c1
 L  c2
 L  c3
 L  c4
 L  c5
 G  c6
 G  c7
 L  c8
 G  c9
 L  c10
 G  c11
 L  c12
 L  c13
 G  c14
 L  fbc
COLUMNS
    x0        c0         4.574000000000e+01
    x0        c1         5.408000000000e+01
    x0        c2        -7.640000000000e+01
    x0        c6         1.996000000000e+01
    x0        c7         2.097000000000e+01
    x0        c8         2.751000000000e+01
    x0        c12       -8.771000000000e+01
    x0        fbc       -2.325300000000e+02
    x0        OBJ       -1.441200000000e+02
    MARK      'MARKER'                 'INTORG'
    x1        c1        -2.037000000000e+01
    x1        c3         3.572000000000e+01
    x1        c4        -7.836000000000e+01
    x1        c5        -5.114000000000e+01
    x1        c6         8.110000000000e+01
    x1        c7         9.747000000000e+01
    x1        c9         8.775000000000e+01
    x1        fbc        1.443900000000e+02
    x1        OBJ        3.564200000000e+02
    MARK      'MARKER'                 'INTEND'
    MARK      'MARKER'                 'INTORG'
    x2        c4         8.441000000000e+01
    x2        c6        -8.157000000000e+01
    x2        c8        -7.323000000000e+01
    x2        c9         7.275000000000e+01
    x2        c11        1.251000000000e+01
    x2        c12       -5.719000000000e+01
    x2        c13       -2.937000000000e+01
    x2        c14        4.682000000000e+01
    x2        fbc       -2.628700000000e+02
    x2        OBJ        2.861000000000e+02
    MARK      'MARKER'                 'INTEND'
    MARK      'MARKER'                 'INTORG'
    x3        c0        -1.159000000000e+01
    x3        c2        -7.664000000000e+01
    x3        c3        -5.846000000000e+01
    x3        c4        -9.255000000000e+01
    x3        c5        -7.288000000000e+01
    x3        c6         8.510000000000e+01
    x3        c7        -4.259000000000e+01
    x3        c8        -3.253000000000e+01
    x3        c9        -7.640000000000e+00
    x3        c10       -3.134000000000e+01
    x3        c12       -4.154000000000e+01
    x3        c13       -8.172000000000e+01
    x3        c14        3.100000000000e-01
    x3        fbc       -4.782900000000e+02
    x3        OBJ        3.586700000000e+02
    MARK      'MARKER'                 'INTEND'
RHS
    RHS       c0         7.109273000000e+02
    RHS       c1        -4.352700000000e+02
    RHS       c2        -6.221636000000e+02
    RHS       c3         4.069030000000e+01
    RHS       c4         1.097705400000e+03
    RHS       c5        -1.448770300000e+03
    RHS       c6         1.319156000000e+03
    RHS       c7         2.038400000000e+00
    RHS       c8        -1.754953000000e+02
    RHS       c9         5.508521000000e+02
    RHS       c10       -5.258120000000e+02
    RHS       c11       -1.694990000000e+01
    RHS       c12       -5.288200000000e+02
    RHS       c13        4.331000000000e+02
    RHS       c14        1.666860000000e+02
    RHS       fbc       -6.980197398262e+04
BOUNDS
 LO BND       x0        -1.000000000000e+02
 UP BND       x0         1.000000000000e+02
 LO BND       x1        -1.000000000000e+02
 UP BND       x1         1.000000000000e+02
 LO BND       x2        -1.000000000000e+02
 UP BND       x2         1.000000000000e+02
 LO BND       x3        -1.000000000000e+02
 UP BND       x3         1.000000000000e+02
ENDATA
